(declare-const X String)
; PORT\x3D\s+User-Agent\x3A\s+ProAgentUI2Host\x3A00000www\x2Ezhongsou\x2Ecom
(assert (str.in_re X (re.++ (str.to_re "PORT=") (re.+ (re.union (str.to_re " ") (str.to_re "\u{9}") (str.to_re "\u{a}") (str.to_re "\u{c}") (str.to_re "\u{d}"))) (str.to_re "User-Agent:") (re.+ (re.union (str.to_re " ") (str.to_re "\u{9}") (str.to_re "\u{a}") (str.to_re "\u{c}") (str.to_re "\u{d}"))) (str.to_re "ProAgentUI2Host:00000www.zhongsou.com\u{a}"))))
; /filename=[^\n]*\x2eplf/i
(assert (not (str.in_re X (re.++ (str.to_re "/filename=") (re.* (re.comp (str.to_re "\u{a}"))) (str.to_re ".plf/i\u{a}")))))
; www\x2Epurityscan\x2Ecom.*
(assert (str.in_re X (re.++ (str.to_re "www.purityscan.com") (re.* re.allchar) (str.to_re "\u{a}"))))
; Host\x3A\s+\x2APORT3\x2A\[DRIVEwww\.raxsearch\.comSubject\x3aHost\x3a
(assert (str.in_re X (re.++ (str.to_re "Host:") (re.+ (re.union (str.to_re " ") (str.to_re "\u{9}") (str.to_re "\u{a}") (str.to_re "\u{c}") (str.to_re "\u{d}"))) (str.to_re "*PORT3*[DRIVEwww.raxsearch.comSubject:Host:\u{a}"))))
(check-sat)
